c K to QBF translator. (C)Rice University.
c From input file 14-3.lwb
p cnf 99 252
e 99 1 98 0
r 0.734 33 0
e 37 97 26 25 24 23 22 21 20 19 18 17 16 15 14 13 12 11 10 9 8 7 6 5 4 3 2 60 87 88 89 90 91 92 93 94 95 96 0
r 0.074 34 35 36 0
e 65 86 32 31 30 29 28 27 68 71 74 76 78 80 82 83 84 85 81 79 77 75 73 72 70 69 67 66 61 62 63 64 59 38 39 40 41 42 43 44 45 46 47 48 49 50 51 52 53 54 55 56 57 58 0
99  0 
99 -98 -1  0 
98 -99  0 
1 -99  0 
-98 37 97  0 
-37 98  0 
-97 98  0 
-37 -33 -1  0 
33 37  0 
1 37  0 
97 -60 -87 -88 -89 -90 -91 -92 -93 -94 -95 -96  0 
60 -97  0 
87 -97  0 
88 -97  0 
89 -97  0 
90 -97  0 
91 -97  0 
92 -97  0 
93 -97  0 
94 -97  0 
95 -97  0 
96 -97  0 
-60 -33 59  0 
33 60  0 
-59 60  0 
59 -38 -39 -40 -41 -42 -5 -43 -44 -45 -46 -47 -48 -49 -50 -51 -52 -53 -54 -55 -56 -57 -58  0 
38 -59  0 
39 -59  0 
40 -59  0 
41 -59  0 
42 -59  0 
5 -59  0 
43 -59  0 
44 -59  0 
45 -59  0 
46 -59  0 
47 -59  0 
48 -59  0 
49 -59  0 
50 -59  0 
51 -59  0 
52 -59  0 
53 -59  0 
54 -59  0 
55 -59  0 
56 -59  0 
57 -59  0 
58 -59  0 
-38 12 9  0 
-12 38  0 
-9 38  0 
-39 2 9  0 
-2 39  0 
-9 39  0 
-40 2 12  0 
-2 40  0 
-12 40  0 
-41 3 9  0 
-3 41  0 
-9 41  0 
-42 3 12  0 
-3 42  0 
-12 42  0 
-43 13 10  0 
-13 43  0 
-10 43  0 
-44 15 10  0 
-15 44  0 
-10 44  0 
-45 15 13  0 
-15 45  0 
-13 45  0 
-46 4 10  0 
-4 46  0 
-10 46  0 
-47 4 13  0 
-4 47  0 
-13 47  0 
-48 4 15  0 
-4 48  0 
-15 48  0 
-49 14 11  0 
-14 49  0 
-11 49  0 
-50 16 11  0 
-16 50  0 
-11 50  0 
-51 16 14  0 
-16 51  0 
-14 51  0 
-52 17 11  0 
-17 52  0 
-11 52  0 
-53 17 16  0 
-17 53  0 
-16 53  0 
-54 17 14  0 
-17 54  0 
-14 54  0 
-55 18 20 19  0 
-18 55  0 
-20 55  0 
-19 55  0 
-56 21 23 22  0 
-21 56  0 
-23 56  0 
-22 56  0 
-57 7 26 8  0 
-7 57  0 
-26 57  0 
-8 57  0 
-58 6 25 24  0 
-6 58  0 
-25 58  0 
-24 58  0 
-87 65 86  0 
-65 87  0 
-86 87  0 
65 -61 -62 -63 -64  0 
61 -65  0 
62 -65  0 
63 -65  0 
64 -65  0 
-61 -5 34 35 -36  0 
5 61  0 
-34 61  0 
-35 61  0 
36 61  0 
-62 -4 -34 35 -36  0 
4 62  0 
34 62  0 
-35 62  0 
36 62  0 
-63 -3 34 -35 -36  0 
3 63  0 
-34 63  0 
35 63  0 
36 63  0 
-64 -2 -34 -35 -36  0 
2 64  0 
34 64  0 
35 64  0 
36 64  0 
86 -68 -71 -74 -76 -78 -80 -82 -83 -84 -85  0 
68 -86  0 
71 -86  0 
74 -86  0 
76 -86  0 
78 -86  0 
80 -86  0 
82 -86  0 
83 -86  0 
84 -86  0 
85 -86  0 
-68 67 32  0 
-67 68  0 
-32 68  0 
-67 -8 66  0 
8 67  0 
-66 67  0 
66 5 4 3 2  0 
-5 -66  0 
-4 -66  0 
-3 -66  0 
-2 -66  0 
-71 70 31  0 
-70 71  0 
-31 71  0 
-70 -7 69  0 
7 70  0 
-69 70  0 
69 5 4 3 2  0 
-5 -69  0 
-4 -69  0 
-3 -69  0 
-2 -69  0 
-74 73 30  0 
-73 74  0 
-30 74  0 
-73 -6 72  0 
6 73  0 
-72 73  0 
72 5 4 3 2  0 
-5 -72  0 
-4 -72  0 
-3 -72  0 
-2 -72  0 
-76 75 28 27  0 
-75 76  0 
-28 76  0 
-27 76  0 
-75 34 35 -36  0 
-34 75  0 
-35 75  0 
36 75  0 
-78 77 29  0 
-77 78  0 
-29 78  0 
-77 -34 35 -36  0 
34 77  0 
-35 77  0 
36 77  0 
-80 79 28  0 
-79 80  0 
-28 80  0 
-79 34 -35 -36  0 
-34 79  0 
35 79  0 
36 79  0 
-82 81 27  0 
-81 82  0 
-27 82  0 
-81 -34 -35 -36  0 
34 81  0 
35 81  0 
36 81  0 
-83 -29 -32  0 
29 83  0 
32 83  0 
-84 -28 -31  0 
28 84  0 
31 84  0 
-85 -27 -30  0 
27 85  0 
30 85  0 
-88 -17 -26  0 
17 88  0 
26 88  0 
-89 -16 -25  0 
16 89  0 
25 89  0 
-90 -15 -24  0 
15 90  0 
24 90  0 
-91 -14 -23  0 
14 91  0 
23 91  0 
-92 -13 -22  0 
13 92  0 
22 92  0 
-93 -12 -21  0 
12 93  0 
21 93  0 
-94 -11 -20  0 
11 94  0 
20 94  0 
-95 -10 -19  0 
10 95  0 
19 95  0 
-96 -9 -18  0 
9 96  0 
18 96  0 
